NAME : XML50_2173_11
COMMENT : Generated as the XML100 dataset from the CVRPLIB
TYPE : CVRP
DIMENSION : 51
EDGE_WEIGHT_TYPE : EUC_2D
CAPACITY : 151
NODE_COORD_SECTION
1    500  500 
2    580  309 
3    979  930 
4    257  564 
5    355  398 
6    302  358 
7    413  537 
8    223  312 
9    510  979 
10   162  854 
11   776  235 
12   727  10  
13   678  462 
14   585  515 
15   881  132 
16   162  991 
17   689  465 
18   950  826 
19   138  765 
20   503  45  
21   89   183 
22   687  327 
23   961  582 
24   319  300 
25   233  895 
26   198  370 
27   168  97  
28   857  875 
29   127  572 
30   621  302 
31   776  899 
32   561  919 
33   490  752 
34   693  715 
35   791  597 
36   649  638 
37   669  729 
38   343  916 
39   279  190 
40   783  434 
41   36   188 
42   666  730 
43   662  830 
44   179  960 
45   327  132 
46   211  653 
47   946  125 
48   358  989 
49   468  544 
50   557  362 
51   422  830 
DEMAND_SECTION
1    0   
2    1   
3    89  
4    74  
5    4   
6    3   
7    8   
8    2   
9    8   
10   3   
11   3   
12   1   
13   5   
14   10  
15   5   
16   5   
17   3   
18   97  
19   7   
20   9   
21   8   
22   9   
23   9   
24   1   
25   9   
26   7   
27   6   
28   79  
29   9   
30   4   
31   9   
32   9   
33   1   
34   7   
35   7   
36   7   
37   9   
38   10  
39   1   
40   7   
41   7   
42   1   
43   10  
44   71  
45   1   
46   50  
47   7   
48   8   
49   6   
50   6   
51   9   
DEPOT_SECTION
1
-1
EOF
